row=10;
column=10;
Board=[|4,3,3,3,2,2,2,8,7,8|2,5,3,3,5,5,4,4,4,3|3,2,2,2,6,5,6,8,6,5|3,2,2,2,5,7,6,5,7,5|3,2,2,2,8,4,7,5,4,8|8,4,5,5,1,1,1,4,4,5|8,7,6,5,1,1,1,3,3,3|7,6,6,5,3,3,3,1,1,1|2,4,7,8,5,4,4,1,1,1|2,6,6,7,4,4,4,1,1,1|];
right = [29,0,28,6,20,0,0,0,0,0];
bottom = [10,5,7,2,8,2,19,8,17,5];
